p wcnf 124 186 187 
1 7 9 0 
1 -7 111 0 
1 15 56 0 
1 -42 115 0 
1 -116 -5 0 
1 -112 -38 0 
1 -15 35 0 
1 102 -66 0 
1 -109 -39 0 
1 -86 -9 0 
1 -99 -81 0 
1 123 100 0 
1 1 -93 0 
1 -61 34 0 
1 24 -50 0 
1 -58 -101 0 
1 -74 -37 0 
1 101 -53 0 
1 40 -3 0 
1 120 21 0 
1 -121 -12 0 
1 41 99 0 
1 15 24 0 
1 -65 108 0 
1 -15 67 0 
1 122 65 0 
1 -45 62 0 
1 -57 95 0 
1 18 -67 0 
1 109 2 0 
1 -124 85 0 
1 71 -34 0 
1 -89 -85 0 
1 114 120 0 
1 -118 72 0 
1 64 45 0 
1 -122 -93 0 
1 55 -67 0 
1 -83 -113 0 
1 -120 32 0 
1 -38 50 0 
1 -39 -93 0 
1 72 -118 0 
1 -78 123 0 
1 22 -124 0 
1 72 -82 0 
1 89 -52 0 
1 -20 -75 0 
1 28 71 0 
1 118 10 0 
1 -85 -65 0 
1 114 -35 0 
1 -72 -65 0 
1 -51 49 0 
1 -65 121 0 
1 112 1 0 
1 66 113 0 
1 -30 52 0 
1 84 -35 0 
1 4 -21 0 
1 -54 119 0 
1 -9 85 0 
1 -70 -31 0 
1 -64 -48 0 
1 -32 -83 0 
1 -63 -91 0 
1 -81 85 0 
1 -70 -65 0 
1 117 -51 0 
1 -22 70 0 
1 -95 55 0 
1 -44 -115 0 
1 -28 18 0 
1 93 64 0 
1 -22 -61 0 
1 -82 49 0 
1 65 -120 0 
1 86 -1 0 
1 -122 49 0 
1 -46 45 0 
1 -112 61 0 
1 -42 26 0 
1 104 -63 0 
1 -113 -112 0 
1 -123 -9 0 
1 11 52 0 
1 -100 -98 0 
1 -118 108 0 
1 12 56 0 
1 50 -55 0 
1 3 44 0 
1 70 -48 0 
1 9 -87 0 
1 -72 102 0 
1 50 -7 0 
1 -45 -52 0 
1 -89 20 0 
1 -2 27 0 
1 86 -108 0 
1 -60 101 0 
1 -95 41 0 
1 -59 -117 0 
1 34 22 0 
1 103 85 0 
1 -20 78 0 
1 91 -69 0 
1 -61 -46 0 
1 -43 -115 0 
1 -31 -77 0 
1 -39 103 0 
1 52 -42 0 
1 -94 111 0 
1 -43 -114 0 
1 91 57 0 
1 -62 10 0 
1 -90 98 0 
1 120 -68 0 
1 16 83 0 
1 -101 -24 0 
1 104 -83 0 
1 45 -16 0 
1 118 -114 0 
1 -95 -78 0 
1 -112 25 0 
1 -29 -49 0 
1 113 -79 0 
1 -16 60 0 
1 -96 99 0 
1 103 -70 0 
1 -16 -39 0 
1 -105 94 0 
1 -109 19 0 
1 -58 -25 0 
1 25 19 0 
1 -68 123 0 
1 82 -9 0 
1 -85 -82 0 
1 -107 78 0 
1 -59 68 0 
1 85 77 0 
1 -110 -104 0 
1 -56 -54 0 
1 27 64 0 
1 -82 -10 0 
1 -57 86 0 
1 70 -91 0 
1 117 53 0 
1 91 9 0 
1 21 17 0 
1 87 -112 0 
1 -61 -17 0 
1 107 109 0 
1 -83 120 0 
1 92 68 0 
1 -98 -124 0 
1 99 63 0 
1 17 33 0 
1 84 -121 0 
1 -46 83 0 
1 -72 94 0 
1 50 51 0 
1 122 14 0 
1 -15 79 0 
1 -89 -28 0 
1 113 -5 0 
1 20 -70 0 
1 -46 -115 0 
1 74 110 0 
1 6 -66 0 
1 -54 58 0 
1 28 -5 0 
1 -30 23 0 
1 118 -91 0 
1 -50 -52 0 
1 -76 -11 0 
1 -49 116 0 
1 7 9 0 
1 24 -116 0 
1 107 -66 0 
1 68 -74 0 
1 -107 124 0 
1 109 -71 0 
1 -49 6 0 
1 113 -81 0 
1 -79 -27 0 
1 122 113 0 
